PointerNetwork/Ptr_Net_TSPTW/benchmark/n20w80/n20w80.001.txt.solution
1 20 14 4 13 19 6 2 15 12 18 16 11 8 17 7 9 5 21 3 10 
329
